Route #1: 103 9 120 20 128 66 71 65 136 35 135 34 78 129
Route #2: 84 17 113 15 43 14 119 44 38 140 86 141 16 91
Route #3: 134 24 29 121 79 33 81 51 80 150 68 3 77
Route #4: 83 45 125 48 82 106 60 118 5
Route #5: 87 42 142 100 61 85 98 37 93 59 92 97 117
Route #6: 127 88 62 148 10 108 90 63 126 32 131 30 122 70 101 69
Route #7: 137 2 115 144 57 145 41 22 133 75 74 72 73 21 149
Route #8: 40 110 4 139 39 67 23 56 25 55 130 54 109
Route #9: 89 18 52 138 12 76 116 50 102 1 132 31
Route #10: 146 7 123 19 107 11 64 49 143 36 47 124 46 8 114
Route #11: 26 105 147 6 96 99 104 95 94 13 58 53
Route #12: 28 111 27 112
Cost 1133.066091269139